
Gurobi 9.5.0 (linux64) logging started Tue Nov  7 13:10:19 2023

Set parameter LogFile to value "/lustre1/scratch/348/vsc34888/JointResearch/05.Models/06.Benchmarking/D.Representative_days_based_on_RES_and_Demand/3-bus_ByStages_nc10/openStarNet_3-bus_ByStages_nc10.log"
Set parameter Method to value 2
Set parameter MIPFocus to value 1
Set parameter Presolve to value 2
Set parameter RINS to value 100
Set parameter MIPGap to value 0.01
Set parameter Threads to value 36
Set parameter TimeLimit to value 604800
Set parameter IterationLimit to value 760000000
Gurobi Optimizer version 9.5.0 build v9.5.0rc5 (linux64)
Thread count: 36 physical cores, 36 logical processors, using up to 36 threads
Optimize a model with 711 rows, 325 columns and 1946 nonzeros
Model fingerprint: 0x69a48321
Variable types: 316 continuous, 9 integer (9 binary)
Coefficient statistics:
  Matrix range     [1e-02, 1e+05]
  Objective range  [1e+00, 1e+00]
  Bounds range     [1e-05, 2e+00]
  RHS range        [1e-05, 1e+00]
Presolve removed 291 rows and 90 columns
Presolve time: 0.00s
Presolved: 420 rows, 235 columns, 1486 nonzeros
Variable types: 226 continuous, 9 integer (9 binary)
Found heuristic solution: objective 55.1787580
Root relaxation presolved: 420 rows, 235 columns, 1486 nonzeros

Root barrier log...

Ordering time: 0.00s

Barrier statistics:
 AA' NZ     : 9.840e+03
 Factor NZ  : 4.681e+04 (roughly 1 MB of memory)
 Factor Ops : 6.969e+06 (less than 1 second per iteration)
 Threads    : 1

                  Objective                Residual
Iter       Primal          Dual         Primal    Dual     Compl     Time
   0   3.58618834e+05 -3.34449447e+07  1.45e+01 3.37e+02  6.15e+04     0s
   1   1.52825555e+04 -6.57502378e+05  7.32e-01 1.82e-11  1.69e+03     0s
   2   1.08337899e+03 -4.00550439e+05  4.72e-02 2.62e-10  5.26e+02     0s
   3   4.61787521e+02 -1.10679641e+04  9.48e-04 4.82e-11  1.40e+01     0s
   4   1.69463968e+02 -7.92914275e+02  8.03e-07 1.54e-11  1.16e+00     0s
   5   6.01574867e+01 -3.18800375e+01  4.48e-09 3.22e-12  1.11e-01     0s
   6   4.72965218e+01  3.62485214e+01  1.81e-10 1.82e-12  1.33e-02     0s
   7   4.31242818e+01  4.14669371e+01  1.04e-10 2.73e-12  2.00e-03     0s
   8   4.26849777e+01  4.25641437e+01  5.96e-09 1.82e-12  1.46e-04     0s
   9   4.26187172e+01  4.26176703e+01  3.76e-09 9.09e-13  1.26e-06     0s
  10   4.26182687e+01  4.26182677e+01  8.33e-10 1.82e-12  1.26e-09     0s
  11   4.26182683e+01  4.26182683e+01  5.16e-10 1.82e-12  1.36e-15     0s

Barrier solved model in 11 iterations and 0.04 seconds (0.02 work units)
Optimal objective 4.26182683e+01


Root relaxation: objective 4.261827e+01, 45 iterations, 0.03 seconds (0.01 work units)

    Nodes    |    Current Node    |     Objective Bounds      |     Work
 Expl Unexpl |  Obj  Depth IntInf | Incumbent    BestBd   Gap | It/Node Time

     0     0   42.61827    0    2   55.17876   42.61827  22.8%     -    0s
H    0     0                      43.0968938   42.61827  1.11%     -    0s
     0     0   42.86827    0    2   43.09689   42.86827  0.53%     -    0s

Cutting planes:
  Cover: 1
  MIR: 13

Explored 1 nodes (58 simplex iterations) in 0.04 seconds (0.02 work units)
Thread count was 36 (of 36 available processors)

Solution count 2: 43.0969 55.1788 

Optimal solution found (tolerance 1.00e-02)
Best objective 4.309689380597e+01, best bound 4.286826827272e+01, gap 0.5305%

Gurobi 9.5.0 (linux64) logging started Tue Nov  7 13:10:19 2023

Set parameter LogFile to value "/lustre1/scratch/348/vsc34888/JointResearch/05.Models/06.Benchmarking/D.Representative_days_based_on_RES_and_Demand/3-bus_ByStages_nc10/openStarNet_3-bus_ByStages_nc10.log"
Set parameter Method to value 2
Set parameter MIPFocus to value 1
Set parameter Presolve to value 2
Set parameter RINS to value 100
Set parameter MIPGap to value 0.01
Set parameter Threads to value 36
Set parameter TimeLimit to value 604800
Set parameter IterationLimit to value 760000000
No parameters matching 'relax_integrality' found
Gurobi Optimizer version 9.5.0 build v9.5.0rc5 (linux64)
Thread count: 36 physical cores, 36 logical processors, using up to 36 threads
Optimize a model with 711 rows, 316 columns and 1577 nonzeros
Model fingerprint: 0x12c48a60
Coefficient statistics:
  Matrix range     [1e-02, 1e+05]
  Objective range  [1e+00, 1e+00]
  Bounds range     [1e-05, 2e+00]
  RHS range        [1e-05, 1e+00]
Presolve removed 641 rows and 190 columns
Presolve time: 0.00s
Presolved: 70 rows, 126 columns, 256 nonzeros

Ordering time: 0.00s

Barrier statistics:
 AA' NZ     : 1.700e+02
 Factor NZ  : 2.800e+02
 Factor Ops : 1.400e+03 (less than 1 second per iteration)
 Threads    : 1

                  Objective                Residual
Iter       Primal          Dual         Primal    Dual     Compl     Time
   0   4.06640481e+05 -2.67056338e+07  3.82e+01 5.94e+02  1.59e+05     0s
   1   1.31141460e+04 -4.42734290e+05  1.58e+00 5.46e-12  3.37e+03     0s
   2   1.35417509e+03 -4.67916381e+04  7.48e-03 9.09e-12  1.96e+02     0s
   3   3.83334081e+02 -1.11349865e+03  1.49e-04 3.96e-12  5.95e+00     0s
   4   1.21791631e+02 -3.94822286e+02  6.88e-06 4.45e-12  2.05e+00     0s
   5   8.76363735e+01 -1.33515249e+02  1.89e-06 4.45e-12  8.78e-01     0s
   6   5.57752479e+01 -4.37653676e+00  3.29e-07 1.82e-12  2.39e-01     0s
   7   4.75234153e+01  3.50312034e+01  1.14e-07 3.64e-12  4.96e-02     0s
   8   4.35045759e+01  4.24815454e+01  6.74e-09 1.82e-12  4.06e-03     0s
   9   4.31005475e+01  4.30801563e+01  9.31e-10 2.73e-12  8.09e-05     0s
  10   4.30969320e+01  4.30967125e+01  2.02e-09 9.09e-13  8.72e-07     0s
  11   4.30968938e+01  4.30968938e+01  5.23e-11 9.09e-13  1.26e-10     0s

Barrier solved model in 11 iterations and 0.00 seconds (0.00 work units)
Optimal objective 4.30968938e+01

Crossover log...

       1 DPushes remaining with DInf 0.0000000e+00                 0s
       0 DPushes remaining with DInf 0.0000000e+00                 0s

      10 PPushes remaining with PInf 0.0000000e+00                 0s
       0 PPushes remaining with PInf 0.0000000e+00                 0s

  Push phase complete: Pinf 0.0000000e+00, Dinf 7.4606987e-14      0s

Iteration    Objective       Primal Inf.    Dual Inf.      Time
      14    4.3096894e+01   0.000000e+00   0.000000e+00      0s

Solved in 14 iterations and 0.00 seconds (0.00 work units)
Optimal objective  4.309689381e+01

Gurobi 9.5.0 (linux64) logging started Wed Nov 15 15:00:51 2023

Set parameter LogFile to value "/lustre1/scratch/348/vsc34888/JointResearch/05.Models/06.Benchmarking/D.Representative_days_based_on_RES_and_Demand/3-bus_ByStages_nc10/openStarNet_3-bus_ByStages_nc10.log"
Set parameter Method to value 2
Set parameter MIPFocus to value 1
Set parameter Presolve to value 2
Set parameter RINS to value 100
Set parameter MIPGap to value 0.01
Set parameter Threads to value 36
Set parameter TimeLimit to value 604800
Set parameter IterationLimit to value 760000000
Gurobi Optimizer version 9.5.0 build v9.5.0rc5 (linux64)
Thread count: 36 physical cores, 36 logical processors, using up to 36 threads
Optimize a model with 783 rows, 357 columns and 2175 nonzeros
Model fingerprint: 0xe535f68b
Variable types: 348 continuous, 9 integer (9 binary)
Coefficient statistics:
  Matrix range     [2e-02, 2e+03]
  Objective range  [1e+00, 1e+00]
  Bounds range     [6e-04, 2e+00]
  RHS range        [6e-04, 1e+00]
Presolve removed 321 rows and 99 columns
Presolve time: 0.00s
Presolved: 462 rows, 258 columns, 1635 nonzeros
Variable types: 249 continuous, 9 integer (9 binary)
Found heuristic solution: objective 75.4866011
Root relaxation presolved: 462 rows, 258 columns, 1635 nonzeros

Root barrier log...

Ordering time: 0.00s

Barrier statistics:
 AA' NZ     : 1.162e+04
 Factor NZ  : 5.636e+04 (roughly 1 MB of memory)
 Factor Ops : 9.272e+06 (less than 1 second per iteration)
 Threads    : 1

                  Objective                Residual
Iter       Primal          Dual         Primal    Dual     Compl     Time
   0   3.56133613e+05 -2.79251115e+07  1.48e+01 2.13e+02  4.68e+04     0s
   1   1.59805955e+04 -5.49747379e+05  7.68e-01 8.19e-12  1.31e+03     0s
   2   1.27962186e+03 -3.10256975e+05  5.12e-02 1.56e-10  3.74e+02     0s
   3   5.37030864e+02 -8.69040822e+03  4.22e-11 1.73e-11  1.01e+01     0s
   4   1.78663227e+02 -7.42835294e+02  2.68e-10 1.36e-12  1.01e+00     0s
   5   8.42908944e+01 -2.30162934e+00  2.38e-10 1.82e-12  9.49e-02     0s
   6   6.92062328e+01  5.88008020e+01  6.53e-11 1.82e-12  1.14e-02     0s
   7   6.57895237e+01  6.40037195e+01  9.75e-11 1.82e-12  1.96e-03     0s
   8   6.56288768e+01  6.52414056e+01  1.23e-08 3.64e-12  4.25e-04     0s
   9   6.52873338e+01  6.52840691e+01  6.77e-09 3.64e-12  3.58e-06     0s
  10   6.52846543e+01  6.52846510e+01  1.34e-10 9.09e-13  3.58e-09     0s
  11   6.52846516e+01  6.52846516e+01  2.90e-09 1.82e-12  6.98e-14     0s

Barrier solved model in 11 iterations and 0.04 seconds (0.02 work units)
Optimal objective 6.52846516e+01


Root relaxation: objective 6.528465e+01, 49 iterations, 0.03 seconds (0.02 work units)

    Nodes    |    Current Node    |     Objective Bounds      |     Work
 Expl Unexpl |  Obj  Depth IntInf | Incumbent    BestBd   Gap | It/Node Time

     0     0   65.28465    0    2   75.48660   65.28465  13.5%     -    0s
H    0     0                      66.1794814   65.28465  1.35%     -    0s
H    0     0                      65.4294814   65.28465  0.22%     -    0s

Cutting planes:
  MIR: 15

Explored 1 nodes (49 simplex iterations) in 0.05 seconds (0.02 work units)
Thread count was 36 (of 36 available processors)

Solution count 3: 65.4295 66.1795 75.4866 

Optimal solution found (tolerance 1.00e-02)
Best objective 6.542948143479e+01, best bound 6.542948143479e+01, gap 0.0000%

Gurobi 9.5.0 (linux64) logging started Wed Nov 15 15:00:51 2023

Set parameter LogFile to value "/lustre1/scratch/348/vsc34888/JointResearch/05.Models/06.Benchmarking/D.Representative_days_based_on_RES_and_Demand/3-bus_ByStages_nc10/openStarNet_3-bus_ByStages_nc10.log"
Set parameter Method to value 2
Set parameter MIPFocus to value 1
Set parameter Presolve to value 2
Set parameter RINS to value 100
Set parameter MIPGap to value 0.01
Set parameter Threads to value 36
Set parameter TimeLimit to value 604800
Set parameter IterationLimit to value 760000000
No parameters matching 'relax_integrality' found
Gurobi Optimizer version 9.5.0 build v9.5.0rc5 (linux64)
Thread count: 36 physical cores, 36 logical processors, using up to 36 threads
Optimize a model with 783 rows, 348 columns and 1770 nonzeros
Model fingerprint: 0x7a60aeb7
Coefficient statistics:
  Matrix range     [2e-02, 2e+03]
  Objective range  [1e+00, 1e+00]
  Bounds range     [6e-04, 2e+00]
  RHS range        [6e-04, 1e+00]
Presolve removed 706 rows and 209 columns
Presolve time: 0.00s
Presolved: 77 rows, 139 columns, 282 nonzeros

Ordering time: 0.00s

Barrier statistics:
 AA' NZ     : 1.870e+02
 Factor NZ  : 3.080e+02
 Factor Ops : 1.540e+03 (less than 1 second per iteration)
 Threads    : 1

                  Objective                Residual
Iter       Primal          Dual         Primal    Dual     Compl     Time
   0   4.72550962e+05 -2.90750711e+07  3.90e+01 8.84e+02  1.57e+05     0s
   1   1.50589905e+04 -4.75477966e+05  1.72e+00 5.80e-12  3.40e+03     0s
   2   1.18373381e+03 -5.07091474e+04  8.26e-03 1.00e-11  1.93e+02     0s
   3   3.67573519e+02 -1.21408159e+03  6.00e-12 4.09e-12  5.69e+00     0s
   4   1.54245123e+02 -3.75620140e+02  2.94e-11 1.82e-12  1.91e+00     0s
   5   9.63573172e+01 -1.25736713e+02  1.84e-11 4.83e-13  7.99e-01     0s
   6   7.14581820e+01  1.64670852e+01  1.92e-11 3.64e-12  1.98e-01     0s
   7   6.67902913e+01  5.32263730e+01  1.08e-10 9.09e-13  4.88e-02     0s
   8   6.55047907e+01  6.45707572e+01  1.07e-10 1.82e-12  3.36e-03     0s
   9   6.54312400e+01  6.54203274e+01  2.81e-11 1.82e-12  3.93e-05     0s
  10   6.54294832e+01  6.54294723e+01  5.70e-11 9.09e-13  3.93e-08     0s
  11   6.54294814e+01  6.54294814e+01  5.71e-11 9.09e-13  3.93e-11     0s

Barrier solved model in 11 iterations and 0.00 seconds (0.00 work units)
Optimal objective 6.54294814e+01

Crossover log...

       0 DPushes remaining with DInf 0.0000000e+00                 0s

      11 PPushes remaining with PInf 0.0000000e+00                 0s
       0 PPushes remaining with PInf 0.0000000e+00                 0s

  Push phase complete: Pinf 0.0000000e+00, Dinf 9.5923269e-14      0s

Iteration    Objective       Primal Inf.    Dual Inf.      Time
      14    6.5429481e+01   0.000000e+00   0.000000e+00      0s

Solved in 14 iterations and 0.00 seconds (0.00 work units)
Optimal objective  6.542948143e+01

Gurobi 10.0.0 (win64) logging started Thu Nov 30 20:53:21 2023

Set parameter LogFile to value "C:\Users\ealvarezq\Documents\GitHub\Comillas\Models\JointResearch\05. Models\06.Benchmarking\D.Representative_days_based_on_RES_and_Demand\3-bus_ByStages_nc10/openStarNet_3-bus_ByStages_nc10.log"
Set parameter Method to value 2
Set parameter MIPFocus to value 1
Set parameter Presolve to value 2
Set parameter RINS to value 100
Set parameter MIPGap to value 0.01
Set parameter Threads to value 9
Set parameter TimeLimit to value 259200
Set parameter IterationLimit to value 760000000
Gurobi Optimizer version 10.0.0 build v10.0.0rc2 (win64)

CPU model: Intel(R) Core(TM) i7-8700 CPU @ 3.20GHz, instruction set [SSE2|AVX|AVX2]
Thread count: 6 physical cores, 12 logical processors, using up to 9 threads

Optimize a model with 730 rows, 326 columns and 1944 nonzeros
Model fingerprint: 0xa3e9dc63
Variable types: 317 continuous, 9 integer (9 binary)
Coefficient statistics:
  Matrix range     [2e-02, 2e+03]
  Objective range  [1e+00, 1e+00]
  Bounds range     [6e-06, 2e+00]
  RHS range        [6e-06, 1e+00]
Presolve removed 290 rows and 103 columns
Presolve time: 0.00s
Presolved: 440 rows, 223 columns, 1435 nonzeros
Variable types: 214 continuous, 9 integer (9 binary)
Found heuristic solution: objective 80.5159978
Root relaxation presolved: 440 rows, 223 columns, 1435 nonzeros

Root barrier log...

Ordering time: 0.00s

Barrier statistics:
 AA' NZ     : 1.082e+04
 Factor NZ  : 5.545e+04 (roughly 1 MB of memory)
 Factor Ops : 9.234e+06 (less than 1 second per iteration)
 Threads    : 1

                  Objective                Residual
Iter       Primal          Dual         Primal    Dual     Compl     Time
   0   7.04402008e+04 -1.91653877e+06  3.49e-01 6.34e+02  7.12e+03     0s
   1   2.50058709e+03 -6.18551741e+05  1.85e-02 3.64e-11  8.42e+02     0s
   2   6.61717729e+02 -2.26451388e+04  2.88e-04 8.37e-11  2.79e+01     0s
   3   3.53370502e+02 -1.44307818e+03  7.84e-07 1.46e-11  2.13e+00     0s
   4   1.19882424e+02 -2.32643967e+02  3.32e-08 6.48e-12  4.19e-01     0s
   5   8.07929111e+01 -7.18277120e+00  6.04e-10 1.18e-11  1.04e-01     0s
   6   7.21683334e+01  6.12531093e+01  1.77e-16 1.02e-11  1.30e-02     0s
   7   6.74364759e+01  6.58175566e+01  1.42e-16 3.88e-12  1.92e-03     0s
   8   6.69988131e+01  6.68711023e+01  2.12e-14 7.03e-12  1.52e-04     0s
   9   6.69132286e+01  6.69127877e+01  1.11e-14 6.99e-12  5.24e-07     0s
  10   6.69130168e+01  6.69130163e+01  5.20e-15 7.86e-12  5.24e-10     0s

Barrier solved model in 10 iterations and 0.03 seconds (0.02 work units)
Optimal objective 6.69130168e+01


Root relaxation: objective 6.691302e+01, 38 iterations, 0.02 seconds (0.01 work units)

    Nodes    |    Current Node    |     Objective Bounds      |     Work
 Expl Unexpl |  Obj  Depth IntInf | Incumbent    BestBd   Gap | It/Node Time

     0     0   66.91302    0    2   80.51600   66.91302  16.9%     -    0s
H    0     0                      67.9799754   66.91302  1.57%     -    0s
H    0     0                      67.3949365   66.91302  0.72%     -    0s

Cutting planes:
  Gomory: 1
  Cover: 1
  MIR: 2

Explored 1 nodes (38 simplex iterations) in 0.06 seconds (0.02 work units)
Thread count was 9 (of 12 available processors)

Solution count 3: 67.3949 67.98 80.516 

Optimal solution found (tolerance 1.00e-02)
Best objective 6.739493646302e+01, best bound 6.691301657210e+01, gap 0.7151%

Gurobi 10.0.0 (win64) logging started Thu Nov 30 20:53:22 2023

Set parameter LogFile to value "C:\Users\ealvarezq\Documents\GitHub\Comillas\Models\JointResearch\05. Models\06.Benchmarking\D.Representative_days_based_on_RES_and_Demand\3-bus_ByStages_nc10/openStarNet_3-bus_ByStages_nc10.log"
Set parameter Method to value 2
Set parameter MIPFocus to value 1
Set parameter Presolve to value 2
Set parameter RINS to value 100
Set parameter MIPGap to value 0.01
Set parameter Threads to value 9
Set parameter TimeLimit to value 259200
Set parameter IterationLimit to value 760000000
No parameters matching 'relax_integrality' found
Gurobi Optimizer version 10.0.0 build v10.0.0rc2 (win64)

CPU model: Intel(R) Core(TM) i7-8700 CPU @ 3.20GHz, instruction set [SSE2|AVX|AVX2]
Thread count: 6 physical cores, 12 logical processors, using up to 9 threads

Optimize a model with 730 rows, 317 columns and 1539 nonzeros
Model fingerprint: 0x8d8e38f3
Coefficient statistics:
  Matrix range     [2e-02, 2e+03]
  Objective range  [1e+00, 1e+00]
  Bounds range     [6e-06, 2e+00]
  RHS range        [6e-06, 2e+00]
Presolve removed 675 rows and 202 columns
Presolve time: 0.00s
Presolved: 55 rows, 115 columns, 225 nonzeros

Ordering time: 0.00s

Barrier statistics:
 AA' NZ     : 1.100e+02
 Factor NZ  : 1.650e+02
 Factor Ops : 6.050e+02 (less than 1 second per iteration)
 Threads    : 1

                  Objective                Residual
Iter       Primal          Dual         Primal    Dual     Compl     Time
   0   5.10572483e+04 -2.52825687e+05  3.05e-01 2.15e+02  4.36e+03     0s
   1   4.07042885e+03 -1.09028667e+05  1.34e-02 2.55e-11  5.74e+02     0s
   2   1.17934499e+03 -5.54502490e+03  9.56e-05 9.09e-12  2.93e+01     0s
   3   2.55713880e+02 -3.18755421e+02  2.37e-06 4.37e-11  2.50e+00     0s
   4   1.26970235e+02 -2.27565798e+01  6.09e-07 6.54e-12  6.51e-01     0s
   5   8.71012877e+01  4.81908136e+01  2.25e-07 2.78e-12  1.69e-01     0s
   6   7.23405456e+01  6.45883436e+01  5.43e-08 1.76e-11  3.37e-02     0s
   7   6.74149122e+01  6.73180186e+01  6.72e-11 3.72e-12  4.21e-04     0s
   8   6.73950337e+01  6.73894559e+01  1.16e-14 6.74e-12  2.43e-05     0s
   9   6.73949508e+01  6.73948691e+01  2.78e-17 1.06e-11  3.55e-07     0s
  10   6.73949365e+01  6.73949364e+01  2.78e-17 3.39e-12  3.55e-10     0s

Barrier solved model in 10 iterations and 0.00 seconds (0.00 work units)
Optimal objective 6.73949365e+01

Crossover log...

       0 DPushes remaining with DInf 0.0000000e+00                 0s

       0 PPushes remaining with PInf 0.0000000e+00                 0s

  Push phase complete: Pinf 0.0000000e+00, Dinf 3.5349501e-13      0s

Iteration    Objective       Primal Inf.    Dual Inf.      Time
       3    6.7394936e+01   0.000000e+00   0.000000e+00      0s

Solved in 3 iterations and 0.01 seconds (0.00 work units)
Optimal objective  6.739493646e+01

Gurobi 10.0.0 (win64) logging started Thu Nov 30 21:44:53 2023

Set parameter LogFile to value "C:\Users\ealvarezq\Documents\GitHub\Comillas\Models\JointResearch\05. Models\06.Benchmarking\D.Representative_days_based_on_RES_and_Demand\3-bus_ByStages_nc10/openStarNet_3-bus_ByStages_nc10.log"
Set parameter Method to value 2
Set parameter MIPFocus to value 1
Set parameter Presolve to value 2
Set parameter RINS to value 100
Set parameter MIPGap to value 0.01
Set parameter Threads to value 9
Set parameter TimeLimit to value 259200
Set parameter IterationLimit to value 760000000
Gurobi Optimizer version 10.0.0 build v10.0.0rc2 (win64)

CPU model: Intel(R) Core(TM) i7-8700 CPU @ 3.20GHz, instruction set [SSE2|AVX|AVX2]
Thread count: 6 physical cores, 12 logical processors, using up to 9 threads

Optimize a model with 730 rows, 326 columns and 1944 nonzeros
Model fingerprint: 0xa3e9dc63
Variable types: 317 continuous, 9 integer (9 binary)
Coefficient statistics:
  Matrix range     [2e-02, 2e+03]
  Objective range  [1e+00, 1e+00]
  Bounds range     [6e-06, 2e+00]
  RHS range        [6e-06, 1e+00]
Presolve removed 290 rows and 103 columns
Presolve time: 0.00s
Presolved: 440 rows, 223 columns, 1435 nonzeros
Variable types: 214 continuous, 9 integer (9 binary)
Found heuristic solution: objective 80.5159978
Root relaxation presolved: 440 rows, 223 columns, 1435 nonzeros

Root barrier log...

Ordering time: 0.00s

Barrier statistics:
 AA' NZ     : 1.082e+04
 Factor NZ  : 5.545e+04 (roughly 1 MB of memory)
 Factor Ops : 9.234e+06 (less than 1 second per iteration)
 Threads    : 1

                  Objective                Residual
Iter       Primal          Dual         Primal    Dual     Compl     Time
   0   7.04402008e+04 -1.91653877e+06  3.49e-01 6.34e+02  7.12e+03     0s
   1   2.50058709e+03 -6.18551741e+05  1.85e-02 3.64e-11  8.42e+02     0s
   2   6.61717729e+02 -2.26451388e+04  2.88e-04 8.37e-11  2.79e+01     0s
   3   3.53370502e+02 -1.44307818e+03  7.84e-07 1.46e-11  2.13e+00     0s
   4   1.19882424e+02 -2.32643967e+02  3.32e-08 6.48e-12  4.19e-01     0s
   5   8.07929111e+01 -7.18277120e+00  6.04e-10 1.18e-11  1.04e-01     0s
   6   7.21683334e+01  6.12531093e+01  1.77e-16 1.02e-11  1.30e-02     0s
   7   6.74364759e+01  6.58175566e+01  1.42e-16 3.88e-12  1.92e-03     0s
   8   6.69988131e+01  6.68711023e+01  2.12e-14 7.03e-12  1.52e-04     0s
   9   6.69132286e+01  6.69127877e+01  1.11e-14 6.99e-12  5.24e-07     0s
  10   6.69130168e+01  6.69130163e+01  5.20e-15 7.86e-12  5.24e-10     0s

Barrier solved model in 10 iterations and 0.02 seconds (0.02 work units)
Optimal objective 6.69130168e+01


Root relaxation: objective 6.691302e+01, 38 iterations, 0.02 seconds (0.01 work units)

    Nodes    |    Current Node    |     Objective Bounds      |     Work
 Expl Unexpl |  Obj  Depth IntInf | Incumbent    BestBd   Gap | It/Node Time

     0     0   66.91302    0    2   80.51600   66.91302  16.9%     -    0s
H    0     0                      67.9799754   66.91302  1.57%     -    0s
H    0     0                      67.3949365   66.91302  0.72%     -    0s

Cutting planes:
  Gomory: 1
  Cover: 1
  MIR: 2

Explored 1 nodes (38 simplex iterations) in 0.06 seconds (0.02 work units)
Thread count was 9 (of 12 available processors)

Solution count 3: 67.3949 67.98 80.516 

Optimal solution found (tolerance 1.00e-02)
Best objective 6.739493646302e+01, best bound 6.691301657210e+01, gap 0.7151%

Gurobi 10.0.0 (win64) logging started Thu Nov 30 21:44:54 2023

Set parameter LogFile to value "C:\Users\ealvarezq\Documents\GitHub\Comillas\Models\JointResearch\05. Models\06.Benchmarking\D.Representative_days_based_on_RES_and_Demand\3-bus_ByStages_nc10/openStarNet_3-bus_ByStages_nc10.log"
Set parameter Method to value 2
Set parameter MIPFocus to value 1
Set parameter Presolve to value 2
Set parameter RINS to value 100
Set parameter MIPGap to value 0.01
Set parameter Threads to value 9
Set parameter TimeLimit to value 259200
Set parameter IterationLimit to value 760000000
No parameters matching 'relax_integrality' found
Gurobi Optimizer version 10.0.0 build v10.0.0rc2 (win64)

CPU model: Intel(R) Core(TM) i7-8700 CPU @ 3.20GHz, instruction set [SSE2|AVX|AVX2]
Thread count: 6 physical cores, 12 logical processors, using up to 9 threads

Optimize a model with 730 rows, 317 columns and 1539 nonzeros
Model fingerprint: 0x8d8e38f3
Coefficient statistics:
  Matrix range     [2e-02, 2e+03]
  Objective range  [1e+00, 1e+00]
  Bounds range     [6e-06, 2e+00]
  RHS range        [6e-06, 2e+00]
Presolve removed 675 rows and 202 columns
Presolve time: 0.00s
Presolved: 55 rows, 115 columns, 225 nonzeros

Ordering time: 0.00s

Barrier statistics:
 AA' NZ     : 1.100e+02
 Factor NZ  : 1.650e+02
 Factor Ops : 6.050e+02 (less than 1 second per iteration)
 Threads    : 1

                  Objective                Residual
Iter       Primal          Dual         Primal    Dual     Compl     Time
   0   5.10572483e+04 -2.52825687e+05  3.05e-01 2.15e+02  4.36e+03     0s
   1   4.07042885e+03 -1.09028667e+05  1.34e-02 2.55e-11  5.74e+02     0s
   2   1.17934499e+03 -5.54502490e+03  9.56e-05 9.09e-12  2.93e+01     0s
   3   2.55713880e+02 -3.18755421e+02  2.37e-06 4.37e-11  2.50e+00     0s
   4   1.26970235e+02 -2.27565798e+01  6.09e-07 6.54e-12  6.51e-01     0s
   5   8.71012877e+01  4.81908136e+01  2.25e-07 2.78e-12  1.69e-01     0s
   6   7.23405456e+01  6.45883436e+01  5.43e-08 1.76e-11  3.37e-02     0s
   7   6.74149122e+01  6.73180186e+01  6.72e-11 3.72e-12  4.21e-04     0s
   8   6.73950337e+01  6.73894559e+01  1.16e-14 6.74e-12  2.43e-05     0s
   9   6.73949508e+01  6.73948691e+01  2.78e-17 1.06e-11  3.55e-07     0s
  10   6.73949365e+01  6.73949364e+01  2.78e-17 3.39e-12  3.55e-10     0s

Barrier solved model in 10 iterations and 0.00 seconds (0.00 work units)
Optimal objective 6.73949365e+01

Crossover log...

       0 DPushes remaining with DInf 0.0000000e+00                 0s

       0 PPushes remaining with PInf 0.0000000e+00                 0s

  Push phase complete: Pinf 0.0000000e+00, Dinf 3.5349501e-13      0s

Iteration    Objective       Primal Inf.    Dual Inf.      Time
       3    6.7394936e+01   0.000000e+00   0.000000e+00      0s

Solved in 3 iterations and 0.02 seconds (0.00 work units)
Optimal objective  6.739493646e+01
